networks/zoo_132_858/zoo_132_858.txt
Number of groups: 89
Flow 19: {5 23} {23 89} 
Flow 23: {46 27} {27 93} 
Flow 25: {20 29} {29 95} 
Flow 33: {19 40} {40 106} 
Flow 35: {2 21} {21 42} {42 108} 
Flow 36: {21 43} {43 109} 
Flow 64: {2 4} {4 1} {1 12} {12 78} 
Flow 94: {62 59} {59 125} 
Flow 106: {1 7} {7 73} 
Flow 116: {4 2} {2 20} {20 86} 
Flow 147: {59 60} {60 66} {66 132} 
Flow 160: {20 31} {31 97} 
Flow 169: {62 61} {61 56} {56 122} 
Flow 179: {4 6} {6 72} 
Flow 187: {19 17} {17 83} 
Flow 197: {26 32} {32 98} 
Flow 222: {8 2} {2 62} 
Flow 227: {9 46} 
Flow 233: {10 46} {46 2} {2 7} {7 5} {5 71} 
Flow 260: {11 7} {7 52} {52 118} 
Flow 268: {60 65} {65 131} 
Flow 270: {12 1} {1 67} 
Flow 282: {14 20} {20 26} {26 17} {17 60} {60 126} 
Flow 291: {15 20} 
Flow 297: {16 20} 
Flow 309: {20 14} {14 80} 
Flow 338: {18 17} 
Flow 379: {2 8} {8 74} 
Flow 389: {20 21} {21 87} 
Flow 402: {46 36} {36 102} 
Flow 406: {19 41} {41 107} 
Flow 409: {20 44} {44 110} 
Flow 417: {4 11} {11 55} {55 121} 
Flow 449: {21 20} {20 30} {30 96} 
Flow 476: {22 2} {2 46} 
Flow 479: {23 5} 
Flow 490: {24 5} {5 7} 
Flow 514: {26 46} {46 37} {37 103} 
Flow 532: {27 46} 
Flow 544: {28 46} {46 112} 
Flow 547: {29 20} {20 2} 
Flow 557: {30 20} 
Flow 569: {31 20} 
Flow 578: {32 26} {26 92} 
Flow 587: {34 26} {26 20} 
Flow 588: {35 25} {25 46} 
Flow 593: {25 26} 
Flow 599: {36 46} {46 26} 
Flow 608: {37 46} 
Flow 618: {38 19} {19 2} 
Flow 620: {39 17} {17 19} 
Flow 625: {40 19} 
Flow 627: {41 19} 
Flow 635: {42 21} 
Flow 643: {43 21} 
Flow 647: {44 20} {20 46} 
Flow 651: {45 21} {21 2} {2 68} 
Flow 665: {46 9} {9 75} 
Flow 666: {46 10} {10 76} 
Flow 669: {46 20} {20 13} {13 79} 
Flow 690: {11 48} {48 114} 
Flow 702: {7 61} {61 64} {64 130} 
Flow 705: {47 7} {7 1} 
Flow 708: {48 11} 
Flow 712: {49 4} 
Flow 716: {50 6} {6 4} {4 62} 
Flow 717: {51 1} {1 4} {4 70} 
Flow 722: {52 7} {7 11} {11 77} 
Flow 728: {54 11} {11 4} 
Flow 736: {56 61} {61 60} 
Flow 741: {57 60} {60 61} {61 127} 
Flow 744: {58 62} {62 2} 
Flow 767: {61 7} {7 2} {2 19} {19 85} 
Flow 775: {60 17} {17 26} {26 34} {34 100} 
Flow 787: {61 62} {62 58} {58 124} 
Flow 805: {20 15} {15 81} 
Flow 809: {2 22} {22 88} 
Flow 811: {5 24} {24 90} 
Flow 812: {46 25} {25 91} 
Flow 815: {46 28} {28 94} 
Flow 823: {19 38} {38 104} 
Flow 829: {7 47} {47 113} 
Flow 831: {62 4} {4 49} {49 115} 
Flow 833: {7 53} {53 119} 
Flow 834: {11 54} {54 120} 
Flow 840: {46 63} {63 129} 
Flow 844: {63 46} 
Flow 848: {65 60} {60 59} {59 62} {62 128} 
Flow 856: {66 60} 
Time taken running everything: 14 seconds
